
  32    4
  10   10   10   10

   0   0   0   0   0   1 2 
   5  10  10  10  10   1 3 
   5  10  10  10  10   1 4 
   8  10  10  10  10   1 5 
   8  10  10  10  10   1 6 
   2  10  10  10  10   1 7 
   8  10  10  10  10   3 19 16 8 
   2  10  10  10  10   1 9 
   2  10  10  10  10   2 14 10 
   1  10  10  10  10   1 11 
   3  10  10  10  10   1 12 
   4  10  10  10  10   1 13 
   8  10  10  10  10   1 15 
   7  10  10  10  10   1 15 
   1  10  10  10  10   1 17 
   6  10  10  10  10   1 17 
   1  10  10  10  10   1 18 
   7  10  10  10  10   1 20 
   9  10  10  10  10   1 20 
   4  10  10  10  10   1 21 
   5  10  10  10  10   1 22 
   2  10  10  10  10   1 23 
   9  10  10  10  10   1 24 
   3  10  10  10  10   1 25 
   9  10  10  10  10   1 26 
   5  10  10  10  10   1 27 
  10  10  10  10  10   1 28 
   1  10  10  10  10   1 29 
   1  10  10  10  10   1 30 
   9  10  10  10  10   1 31 
   3  10  10  10  10   1 32
   0   0   0   0   0   0 
